certificates/rado_a9_c283_N33.cnf
c Rad2 upper bound instance: x1 + 9*x2 - x3 = 283, interval [1,33]
p cnf 33 218
1 6 32 0
-1 -6 -32 0
1 15 33 0
-1 -15 -33 0
2 7 32 0
-2 -7 -32 0
2 16 33 0
-2 -16 -33 0
3 8 32 0
-3 -8 -32 0
3 17 33 0
-3 -17 -33 0
4 9 32 0
-4 -9 -32 0
4 18 33 0
-4 -18 -33 0
1 5 31 0
-1 -5 -31 0
5 10 32 0
-5 -10 -32 0
5 19 33 0
-5 -19 -33 0
2 6 31 0
-2 -6 -31 0
6 11 32 0
-6 -11 -32 0
6 20 33 0
-6 -20 -33 0
3 7 31 0
-3 -7 -31 0
7 12 32 0
-7 -12 -32 0
7 21 33 0
-7 -21 -33 0
4 8 31 0
-4 -8 -31 0
8 13 32 0
-8 -13 -32 0
8 22 33 0
-8 -22 -33 0
5 9 31 0
-5 -9 -31 0
9 14 32 0
-9 -14 -32 0
9 23 33 0
-9 -23 -33 0
6 10 31 0
-6 -10 -31 0
10 15 32 0
-10 -15 -32 0
10 24 33 0
-10 -24 -33 0
7 11 31 0
-7 -11 -31 0
11 16 32 0
-11 -16 -32 0
11 25 33 0
-11 -25 -33 0
8 12 31 0
-8 -12 -31 0
12 17 32 0
-12 -17 -32 0
12 26 33 0
-12 -26 -33 0
9 13 31 0
-9 -13 -31 0
13 18 32 0
-13 -18 -32 0
13 27 33 0
-13 -27 -33 0
1 14 30 0
-1 -14 -30 0
10 14 31 0
-10 -14 -31 0
14 19 32 0
-14 -19 -32 0
14 28 33 0
-14 -28 -33 0
2 15 30 0
-2 -15 -30 0
11 15 31 0
-11 -15 -31 0
15 20 32 0
-15 -20 -32 0
15 29 33 0
-15 -29 -33 0
3 16 30 0
-3 -16 -30 0
12 16 31 0
-12 -16 -31 0
16 21 32 0
-16 -21 -32 0
16 30 33 0
-16 -30 -33 0
4 17 30 0
-4 -17 -30 0
13 17 31 0
-13 -17 -31 0
17 22 32 0
-17 -22 -32 0
17 31 33 0
-17 -31 -33 0
5 18 30 0
-5 -18 -30 0
14 18 31 0
-14 -18 -31 0
18 23 32 0
-18 -23 -32 0
18 32 33 0
-18 -32 -33 0
6 19 30 0
-6 -19 -30 0
15 19 31 0
-15 -19 -31 0
19 24 32 0
-19 -24 -32 0
19 33 0
-19 -33 0
7 20 30 0
-7 -20 -30 0
16 20 31 0
-16 -20 -31 0
20 25 32 0
-20 -25 -32 0
8 21 30 0
-8 -21 -30 0
17 21 31 0
-17 -21 -31 0
21 26 32 0
-21 -26 -32 0
9 22 30 0
-9 -22 -30 0
18 22 31 0
-18 -22 -31 0
22 27 32 0
-22 -27 -32 0
1 23 29 0
-1 -23 -29 0
10 23 30 0
-10 -23 -30 0
19 23 31 0
-19 -23 -31 0
23 28 32 0
-23 -28 -32 0
2 24 29 0
-2 -24 -29 0
11 24 30 0
-11 -24 -30 0
20 24 31 0
-20 -24 -31 0
24 29 32 0
-24 -29 -32 0
3 25 29 0
-3 -25 -29 0
12 25 30 0
-12 -25 -30 0
21 25 31 0
-21 -25 -31 0
25 30 32 0
-25 -30 -32 0
4 26 29 0
-4 -26 -29 0
13 26 30 0
-13 -26 -30 0
22 26 31 0
-22 -26 -31 0
26 31 32 0
-26 -31 -32 0
5 27 29 0
-5 -27 -29 0
14 27 30 0
-14 -27 -30 0
23 27 31 0
-23 -27 -31 0
27 32 0
-27 -32 0
6 28 29 0
-6 -28 -29 0
15 28 30 0
-15 -28 -30 0
24 28 31 0
-24 -28 -31 0
28 32 33 0
-28 -32 -33 0
7 29 0
-7 -29 0
16 29 30 0
-16 -29 -30 0
25 29 31 0
-25 -29 -31 0
8 29 30 0
-8 -29 -30 0
17 30 0
-17 -30 0
26 30 31 0
-26 -30 -31 0
9 29 31 0
-9 -29 -31 0
18 30 31 0
-18 -30 -31 0
27 31 0
-27 -31 0
1 28 32 0
-1 -28 -32 0
10 29 32 0
-10 -29 -32 0
19 30 32 0
-19 -30 -32 0
28 31 32 0
-28 -31 -32 0
2 28 33 0
-2 -28 -33 0
11 29 33 0
-11 -29 -33 0
20 30 33 0
-20 -30 -33 0
29 31 33 0
-29 -31 -33 0
