certificates/rado_a9_c283_N33.drat
-32 -33 0
-33 0
19 0
32 0
-27 0
-14 0
-24 0
-30 0
31 0
13 0
1 0
28 0
0
